units             metal

read_data         supercell-00${iter}

mass              1 28.084

pair_style        sw
pair_coeff        * * Si.sw Si

dump              phonopy all custom 1 force.1 id type x y z fx fy fz
dump_modify       phonopy format line "%d %d %15.8f %15.8f %15.8f %15.8f %15.8f %15.8f"

run 0
